53
150
105	2
104	1
102	1
101	2
100	2
99	4
98	2
97	1
95	2
94	1
89	3
88	2
87	2
86	2
85	2
82	1
81	4
79	1
78	3
77	1
76	2
75	1
74	3
73	1
72	3
71	2
68	2
66	2
65	1
62	2
59	1
58	1
54	3
53	3
51	2
49	3
47	2
45	1
42	1
41	3
40	1
39	4
35	2
34	1
33	2
29	2
28	1
23	1
22	1
19	2
17	3
16	1
15	1
